; benchmark generated from python API
(set-info :status unknown)
(declare-fun s () Int)
(define-funs-rec ( ( Tn_06 ((x!1 Int)) Int)
                   ( pn_06 ((x!1 Int)) Int)
                   ( T2_11 ((x!1 Int)) Int)
                   ( p2_11 ((x!1 Int)) Int)
                   ( ilog2_2_11 ((x!1 Int)) Int))
                 ( ((_ pn_06 0) x!1)
                   (let ((a!1 (mod (- x!1 ((_ pn_06 0) (div x!1 s))) s)))
                     (ite (= x!1 0) 0 a!1))
                   (+ (- 1 ((_ p2_11 0) (+ x!1 1))) ((_ p2_11 0) x!1))
                   (let ((a!1 (* (mod ((_ ilog2_2_11 0) (+ x!1 1)) 2)
                                 (mod x!1 2))))
                     (+ (div x!1 2) a!1))
                   (ite (<= x!1 1) 0 (+ 1 ((_ ilog2_2_11 0) (div x!1 2))))))
(assert
 (forall ((n Int) )(let ((?x421 ((_ Tn_06 0) n)))
(let ((?x13846 ((_ T2_11 0) n)))
(let (($x416 (= ?x13846 ?x421)))
(let (($x17829 (>= n 0)))
(=> $x17829 $x416))))))
)
(check-sat)
